(set-logic QF_NRA)
(declare-fun skoS () Real)
(declare-fun skoC () Real)
(declare-fun skoCB () Real)
(declare-fun skoSB () Real)
(declare-fun skoX () Real)
(assert (and (<= (+ (* (- 7383) skoS) (* (- 3400) skoC)) (- 760000)) (and (= (+ (* skoSB skoSB) (* skoCB skoCB)) 1) (and (= (+ (* skoS skoS) (* skoC skoC)) 1) (and (<= (* 10000000 skoX) 1) (<= (* (- 1) skoX) 0))))))
(set-info :status unsat)
(check-sat)
